id: 1757
name: cont11_l
group: mittelmann/misc
method: 2

Gurobi 7.0.2 (linux64, Matlab) logging started Tue 10 Apr 2018 15:42:48 BST


Gurobi 7.0.2 (linux64) logging started Tue Apr 10 15:42:48 2018

Optimize a model with 1468599 rows, 981396 columns and 4403001 nonzeros
Coefficient statistics:
  Matrix range     [1e-03, 4e+00]
  Objective range  [1e+00, 1e+00]
  Bounds range     [4e+00, 1e+01]
  RHS range        [4e-05, 5e-03]
Presolve removed 489999 rows and 0 columns
Presolve time: 1.41s
Presolved: 978600 rows, 981396 columns, 3424401 nonzeros

Elapsed ordering time = 5s
Ordering time: 7.47s

Barrier statistics:
 AA' NZ     : 5.368e+06
 Factor NZ  : 6.441e+07 (roughly 1.3 GBytes of memory)
 Factor Ops : 3.251e+10 (roughly 1 second per iteration)
 Threads    : 4

                  Objective                Residual
Iter       Primal          Dual         Primal    Dual     Compl     Time
   0   4.89383995e+04 -1.70713206e+05  1.50e-01 3.47e-18  1.22e-01    11s
   1   2.18633996e+03 -2.39382368e+03  3.05e-12 9.79e-14  2.34e-03    11s
   2   8.78392034e+02 -3.58935042e+02  1.48e-11 3.14e-14  6.31e-04    12s
   3   3.51302472e+02  4.46553654e+00  3.28e-11 9.32e-14  1.77e-04    13s
   4   2.71090652e+02  1.43256358e+02  1.65e-11 1.69e-13  6.51e-05    15s
   5   2.46326886e+02  1.72534890e+02  1.26e-11 1.59e-13  3.76e-05    16s
   6   2.20311670e+02  1.98662935e+02  2.42e-11 2.28e-13  1.10e-05    17s
   7   2.12715850e+02  2.02990741e+02  5.27e-11 1.98e-13  4.95e-06    17s
   8   2.09877330e+02  2.04208949e+02  1.02e-10 1.83e-13  2.89e-06    18s
   9   2.08684983e+02  2.05095917e+02  9.89e-11 1.77e-13  1.83e-06    19s
  10   2.07988095e+02  2.05529486e+02  1.81e-10 2.21e-13  1.25e-06    20s
  11   2.07203957e+02  2.05745561e+02  2.44e-10 1.93e-13  7.43e-07    21s
  12   2.06645837e+02  2.05790983e+02  4.19e-10 2.12e-13  4.36e-07    22s
  13   2.06174193e+02  2.05876800e+02  5.87e-10 1.99e-13  1.52e-07    23s
  14   2.06046409e+02  2.05911505e+02  6.13e-10 1.92e-13  6.87e-08    24s
  15   2.05997577e+02  2.05930564e+02  6.85e-10 1.73e-13  3.41e-08    24s
  16   2.05975897e+02  2.05945091e+02  7.35e-10 1.76e-13  1.57e-08    25s
  17   2.05963288e+02  2.05949894e+02  1.06e-09 2.05e-13  6.83e-09    26s
  18   2.05960046e+02  2.05954803e+02  4.39e-10 2.92e-13  2.67e-09    28s
  19   2.05958712e+02  2.05955628e+02  1.93e-10 2.20e-13  1.57e-09    29s
  20   2.05957970e+02  2.05956929e+02  8.95e-11 1.90e-13  5.31e-10    30s
  21   2.05957713e+02  2.05957484e+02  1.61e-10 1.86e-13  1.16e-10    31s
  22   2.05957671e+02  2.05957630e+02  2.40e-09 1.98e-13  2.11e-11    32s
  23   2.05957664e+02  2.05957647e+02  1.77e-08 2.51e-13  1.15e-11    33s

Barrier solved model in 23 iterations and 33.47 seconds
Optimal objective 2.05957664e+02

Crossover log...

  924614 variables added to crossover basis                       35s
  960964 variables added to crossover basis                       40s
  966254 variables added to crossover basis                       45s
  969174 variables added to crossover basis                       50s
  970604 variables added to crossover basis                       55s
  971714 variables added to crossover basis                       60s
  972254 variables added to crossover basis                       65s
  972664 variables added to crossover basis                       70s
  973124 variables added to crossover basis                       75s
  973534 variables added to crossover basis                       80s
  973914 variables added to crossover basis                       85s

    4276 DPushes remaining with DInf 0.0000000e+00               260s
    4270 DPushes remaining with DInf 0.0000000e+00               331s
    2435 DPushes remaining with DInf 0.0000000e+00               533s
    1092 DPushes remaining with DInf 0.0000000e+00              1126s
       0 DPushes remaining with DInf 0.0000000e+00              1450s

     214 PPushes remaining with PInf 2.8862519e-05              1450s
       1 PPushes remaining with PInf 1.0011524e-04              1715s
       0 PPushes remaining with PInf 1.0012708e-04              1954s

  Push phase complete: Pinf 1.0012708e-04, Dinf 1.7543772e+03   1955s

Iteration    Objective       Primal Inf.    Dual Inf.      Time
    3853    2.0595726e+02   0.000000e+00   1.754366e+03   2144s
    4013    2.0595748e+02   2.500562e-04   0.000000e+00   2399s
Warning: Markowitz tolerance tightened to 0.25
    4055    2.0595761e+02   0.000000e+00   0.000000e+00   3258s

Solved in 4055 iterations and 3257.66 seconds
Optimal objective  2.059576123e+02
status: OPTIMAL
